p edge 1080 2592
e 1 60
e 1 99
e 1 203
e 1 231
e 1 466
e 1 499
e 1 575
e 1 679
e 1 834
e 1 851
e 1 955
e 1 1026
e 2 221
e 2 359
e 2 430
e 3 49
e 3 257
e 3 934
e 4 480
e 4 749
e 4 941
e 5 355
e 5 507
e 5 990
e 6 386
e 6 881
e 6 910
e 7 833
e 7 859
e 7 868
e 8 112
e 8 187
e 8 361
e 8 371
e 8 416
e 8 451
e 8 475
e 8 563
e 8 740
e 8 867
e 8 882
e 8 951
e 9 492
e 9 558
e 9 600
e 10 452
e 10 600
e 10 932
e 11 232
e 11 587
e 11 1016
e 12 189
e 12 359
e 12 905
e 13 749
e 13 801
e 13 896
e 14 384
e 14 435
e 14 719
e 15 191
e 15 297
e 15 674
e 16 512
e 16 705
e 16 860
e 17 225
e 17 325
e 17 637
e 18 394
e 18 495
e 18 509
e 19 43
e 19 189
e 19 732
e 20 462
e 20 607
e 20 613
e 21 490
e 21 665
e 21 996
e 22 607
e 22 857
e 22 1068
e 23 352
e 23 405
e 23 985
e 24 153
e 24 780
e 24 783
e 25 249
e 25 897
e 25 985
e 26 325
e 26 754
e 26 996
e 27 219
e 27 859
e 27 972
e 28 189
e 28 505
e 28 857
e 29 507
e 29 801
e 29 985
e 30 95
e 30 462
e 30 900
e 31 559
e 31 932
e 31 1001
e 32 306
e 32 382
e 32 896
e 33 269
e 33 818
e 33 941
e 34 245
e 34 511
e 34 877
e 35 384
e 35 705
e 35 1001
e 36 153
e 36 662
e 36 669
e 37 608
e 37 658
e 37 776
e 38 437
e 38 781
e 38 941
e 39 719
e 39 739
e 39 996
e 40 86
e 40 176
e 40 376
e 40 586
e 40 677
e 40 721
e 40 762
e 40 845
e 40 907
e 40 940
e 40 945
e 40 1048
e 41 75
e 41 356
e 41 754
e 42 83
e 42 370
e 42 552
e 43 138
e 43 229
e 43 371
e 43 409
e 43 622
e 43 653
e 43 702
e 43 742
e 43 766
e 43 961
e 43 1005
e 44 112
e 44 186
e 44 208
e 44 291
e 44 315
e 44 331
e 44 411
e 44 678
e 44 679
e 44 694
e 44 785
e 44 1078
e 45 221
e 45 298
e 45 750
e 46 127
e 46 437
e 46 621
e 47 92
e 47 230
e 47 235
e 47 278
e 47 302
e 47 415
e 47 534
e 47 612
e 47 814
e 47 976
e 47 1037
e 47 1051
e 48 98
e 48 339
e 48 552
e 49 155
e 49 224
e 49 229
e 49 266
e 49 279
e 49 419
e 49 563
e 49 680
e 49 761
e 49 810
e 49 1030
e 50 102
e 50 236
e 50 994
e 51 329
e 51 465
e 51 897
e 52 221
e 52 598
e 52 824
e 53 576
e 53 844
e 53 994
e 54 297
e 54 465
e 54 513
e 55 58
e 55 492
e 55 780
e 56 435
e 56 508
e 56 746
e 57 298
e 57 861
e 57 897
e 58 71
e 58 114
e 58 204
e 58 209
e 58 280
e 58 364
e 58 366
e 58 408
e 58 544
e 58 974
e 58 986
e 59 116
e 59 150
e 59 221
e 60 116
e 60 309
e 61 91
e 61 462
e 61 513
e 62 325
e 62 637
e 62 665
e 63 479
e 63 822
e 63 932
e 64 219
e 64 847
e 64 860
e 65 339
e 65 343
e 65 850
e 66 76
e 66 100
e 66 106
e 66 178
e 66 198
e 66 217
e 66 324
e 66 362
e 66 399
e 66 606
e 66 849
e 66 1009
e 67 676
e 67 705
e 67 881
e 68 272
e 68 303
e 68 362
e 68 390
e 68 453
e 68 478
e 68 544
e 68 682
e 68 764
e 68 826
e 68 945
e 68 1014
e 69 204
e 69 263
e 69 284
e 69 296
e 69 376
e 69 414
e 69 474
e 69 642
e 69 729
e 69 926
e 69 1024
e 69 1025
e 70 309
e 70 333
e 70 621
e 71 644
e 71 861
e 72 339
e 72 904
e 72 936
e 73 91
e 73 600
e 73 988
e 74 95
e 74 498
e 74 1068
e 75 211
e 75 291
e 75 335
e 75 388
e 75 426
e 75 547
e 75 742
e 75 828
e 75 846
e 75 920
e 75 1047
e 76 250
e 76 662
e 77 297
e 77 498
e 77 512
e 78 182
e 78 189
e 78 462
e 79 382
e 79 746
e 79 905
e 80 511
e 80 662
e 80 746
e 81 498
e 81 781
e 81 857
e 82 140
e 82 443
e 82 644
e 83 92
e 83 129
e 83 172
e 83 173
e 83 197
e 83 222
e 83 233
e 83 251
e 83 625
e 83 690
e 83 809
e 84 116
e 84 367
e 84 897
e 85 135
e 85 144
e 85 413
e 86 662
e 86 830
e 87 440
e 87 674
e 87 893
e 88 384
e 88 443
e 88 850
e 89 333
e 89 339
e 89 998
e 90 95
e 90 440
e 90 985
e 91 117
e 91 139
e 91 523
e 91 536
e 91 724
e 91 734
e 91 773
e 91 862
e 91 939
e 91 1018
e 92 985
e 93 98
e 93 456
e 93 463
e 94 559
e 94 619
e 94 1064
e 95 165
e 95 337
e 95 369
e 95 425
e 95 681
e 95 806
e 95 823
e 95 840
e 95 1025
e 96 509
e 96 727
e 96 1058
e 97 384
e 97 452
e 97 623
e 98 226
e 98 301
e 98 378
e 98 401
e 98 429
e 98 459
e 98 764
e 98 1000
e 98 1011
e 98 1023
e 99 298
e 99 587
e 100 182
e 100 498
e 101 257
e 101 359
e 101 886
e 102 120
e 102 253
e 102 308
e 102 427
e 102 470
e 102 611
e 102 706
e 102 802
e 102 809
e 102 929
e 102 960
e 103 184
e 103 332
e 103 676
e 104 443
e 104 619
e 104 746
e 105 500
e 105 509
e 105 1020
e 106 250
e 106 394
e 107 250
e 107 330
e 107 382
e 108 132
e 108 435
e 108 754
e 109 236
e 109 443
e 109 877
e 110 140
e 110 182
e 110 669
e 111 367
e 111 473
e 111 735
e 112 430
e 113 330
e 113 339
e 113 609
e 114 783
e 114 941
e 115 897
e 115 900
e 115 1068
e 116 149
e 116 293
e 116 483
e 116 646
e 116 837
e 116 840
e 116 925
e 116 939
e 116 1046
e 117 413
e 117 511
e 118 330
e 118 783
e 118 996
e 119 758
e 119 780
e 119 1019
e 120 850
e 120 1038
e 121 140
e 121 613
e 121 665
e 122 274
e 122 716
e 122 868
e 123 135
e 123 435
e 123 662
e 124 153
e 124 393
e 124 463
e 125 330
e 125 405
e 125 621
e 126 608
e 126 844
e 126 881
e 127 174
e 127 254
e 127 420
e 127 468
e 127 603
e 127 646
e 127 670
e 127 720
e 127 748
e 127 851
e 127 880
e 128 249
e 128 674
e 128 789
e 129 140
e 129 844
e 130 355
e 130 896
e 130 898
e 131 184
e 131 700
e 131 732
e 132 299
e 132 307
e 132 340
e 132 380
e 132 568
e 132 671
e 132 767
e 132 927
e 132 944
e 132 966
e 132 1067
e 133 194
e 133 235
e 133 260
e 133 338
e 133 441
e 133 486
e 133 630
e 133 738
e 133 772
e 133 965
e 133 1007
e 133 1042
e 134 598
e 134 850
e 134 932
e 135 205
e 135 276
e 135 313
e 135 575
e 135 666
e 135 673
e 135 756
e 135 832
e 135 855
e 135 1010
e 136 250
e 136 473
e 136 776
e 137 488
e 137 490
e 137 830
e 138 387
e 138 607
e 139 822
e 139 1072
e 140 308
e 140 433
e 140 631
e 140 655
e 140 664
e 140 691
e 140 906
e 140 918
e 141 274
e 141 754
e 141 975
e 142 714
e 142 886
e 142 934
e 143 786
e 143 900
e 143 998
e 144 254
e 144 544
e 144 582
e 144 713
e 144 738
e 144 762
e 144 820
e 144 853
e 144 967
e 144 1002
e 144 1041
e 145 456
e 145 727
e 145 936
e 146 161
e 146 261
e 146 818
e 147 443
e 147 674
e 147 963
e 148 277
e 148 604
e 148 618
e 149 750
e 149 998
e 150 258
e 150 283
e 150 406
e 150 441
e 150 442
e 150 445
e 150 447
e 150 577
e 150 760
e 150 1065
e 150 1069
e 151 662
e 151 815
e 151 984
e 152 221
e 152 463
e 152 936
e 153 639
e 153 729
e 153 813
e 153 871
e 153 995
e 153 997
e 153 1002
e 153 1014
e 153 1054
e 154 304
e 154 492
e 154 1079
e 155 716
e 155 1019
e 156 250
e 156 367
e 156 413
e 157 245
e 157 452
e 157 644
e 158 269
e 158 449
e 158 747
e 159 225
e 159 352
e 159 552
e 160 628
e 160 824
e 160 833
e 161 176
e 161 178
e 161 275
e 161 364
e 161 757
e 161 813
e 161 863
e 161 888
e 161 927
e 161 1010
e 161 1049
e 162 430
e 162 570
e 162 658
e 163 193
e 163 309
e 163 498
e 164 306
e 164 508
e 164 861
e 165 245
e 165 298
e 166 288
e 166 585
e 166 861
e 167 297
e 167 621
e 167 850
e 168 413
e 168 558
e 168 783
e 169 413
e 169 490
e 169 735
e 170 465
e 170 716
e 170 801
e 171 277
e 171 309
e 171 900
e 172 700
e 172 708
e 173 225
e 173 904
e 174 333
e 174 348
e 175 343
e 175 437
e 175 517
e 176 665
e 177 662
e 177 735
e 177 818
e 178 735
e 179 352
e 179 389
e 179 674
e 180 462
e 180 932
e 180 1072
e 181 330
e 181 488
e 181 492
e 182 322
e 182 347
e 182 397
e 182 476
e 182 520
e 182 777
e 182 787
e 182 875
e 182 959
e 183 333
e 183 780
e 183 818
e 184 264
e 184 417
e 184 537
e 184 626
e 184 689
e 184 827
e 184 902
e 184 929
e 184 1043
e 184 1075
e 185 243
e 185 367
e 185 658
e 186 644
e 186 750
e 187 685
e 187 1058
e 188 356
e 188 628
e 188 799
e 189 241
e 189 278
e 189 385
e 189 548
e 189 553
e 189 698
e 189 827
e 189 980
e 190 243
e 190 257
e 190 391
e 191 281
e 191 285
e 191 337
e 191 397
e 191 428
e 191 468
e 191 477
e 191 526
e 191 606
e 191 784
e 191 866
e 192 333
e 192 449
e 192 517
e 193 360
e 193 418
e 193 427
e 193 428
e 193 481
e 193 602
e 193 720
e 193 722
e 193 913
e 193 991
e 193 1034
e 194 492
e 194 996
e 195 261
e 195 330
e 195 898
e 196 860
e 196 984
e 196 988
e 197 533
e 197 618
e 198 613
e 198 900
e 199 320
e 199 351
e 199 373
e 199 417
e 199 548
e 199 615
e 199 670
e 199 773
e 199 817
e 199 820
e 199 948
e 199 1077
e 200 332
e 200 746
e 200 1001
e 201 243
e 201 490
e 201 618
e 202 374
e 202 394
e 202 747
e 203 644
e 203 1020
e 204 877
e 205 600
e 205 783
e 206 274
e 206 628
e 206 637
e 207 221
e 207 676
e 207 934
e 208 257
e 208 685
e 209 623
e 209 830
e 210 456
e 210 750
e 210 1016
e 211 370
e 211 801
e 212 359
e 212 843
e 212 893
e 213 786
e 213 844
e 213 847
e 214 257
e 214 430
e 214 1020
e 215 325
e 215 370
e 215 799
e 216 332
e 216 576
e 216 644
e 217 735
e 217 981
e 218 473
e 218 783
e 218 815
e 219 303
e 219 342
e 219 550
e 219 577
e 219 627
e 219 630
e 219 633
e 219 807
e 219 819
e 219 882
e 220 269
e 220 780
e 220 781
e 221 231
e 221 256
e 221 396
e 221 622
e 221 654
e 221 1023
e 222 658
e 222 674
e 223 288
e 223 587
e 223 750
e 224 747
e 224 847
e 225 317
e 225 502
e 225 650
e 225 666
e 225 741
e 225 846
e 225 1008
e 225 1028
e 225 1032
e 226 382
e 226 941
e 227 236
e 227 665
e 227 857
e 228 288
e 228 609
e 228 1040
e 229 714
e 230 463
e 230 893
e 231 1016
e 232 256
e 232 411
e 232 571
e 232 646
e 232 673
e 232 693
e 232 697
e 232 782
e 232 808
e 232 1056
e 232 1073
e 233 609
e 233 990
e 234 437
e 234 708
e 234 815
e 235 339
e 236 341
e 236 402
e 236 422
e 236 506
e 236 545
e 236 580
e 236 625
e 236 875
e 236 930
e 237 463
e 237 833
e 237 1058
e 238 243
e 238 750
e 238 815
e 239 359
e 239 456
e 239 685
e 240 739
e 240 799
e 240 830
e 241 551
e 241 896
e 242 333
e 242 558
e 242 708
e 243 412
e 243 470
e 243 575
e 243 689
e 243 711
e 243 779
e 243 867
e 243 1073
e 244 480
e 244 700
e 244 1016
e 245 321
e 245 408
e 245 482
e 245 503
e 245 573
e 245 677
e 245 895
e 245 911
e 245 1054
e 246 332
e 246 674
e 246 860
e 247 705
e 247 746
e 247 850
e 248 413
e 248 492
e 248 815
e 249 322
e 249 395
e 249 632
e 249 649
e 249 681
e 249 794
e 249 913
e 249 922
e 249 968
e 249 971
e 250 311
e 250 353
e 250 486
e 250 597
e 250 811
e 250 863
e 250 1055
e 251 389
e 251 512
e 252 576
e 252 669
e 252 857
e 253 551
e 253 608
e 254 822
e 255 384
e 255 508
e 255 1038
e 256 288
e 257 342
e 257 404
e 257 410
e 257 491
e 257 516
e 257 947
e 257 961
e 258 509
e 258 628
e 259 274
e 259 758
e 259 941
e 260 824
e 260 838
e 261 310
e 261 399
e 261 469
e 261 562
e 261 565
e 261 567
e 261 852
e 261 889
e 261 965
e 261 1009
e 262 498
e 262 613
e 262 818
e 263 877
e 263 988
e 264 443
e 264 685
e 265 480
e 265 780
e 265 898
e 266 356
e 266 507
e 267 288
e 267 480
e 267 904
e 268 387
e 268 551
e 268 700
e 269 362
e 269 436
e 269 650
e 269 748
e 269 756
e 269 812
e 269 883
e 269 1003
e 269 1022
e 270 621
e 270 700
e 270 936
e 271 570
e 271 716
e 271 833
e 272 749
e 272 936
e 273 495
e 273 847
e 273 886
e 274 335
e 274 419
e 274 432
e 274 527
e 274 682
e 274 819
e 274 928
e 274 1027
e 275 384
e 275 511
e 276 608
e 276 750
e 277 372
e 277 468
e 277 521
e 277 529
e 277 634
e 277 712
e 277 908
e 277 950
e 277 960
e 277 968
e 278 1016
e 279 393
e 279 495
e 280 463
e 280 847
e 281 585
e 281 1068
e 282 443
e 282 512
e 282 859
e 283 658
e 283 685
e 284 306
e 284 754
e 285 613
e 285 781
e 286 359
e 286 714
e 286 868
e 287 370
e 287 637
e 287 739
e 288 302
e 288 385
e 288 429
e 288 911
e 288 992
e 288 1025
e 288 1026
e 289 332
e 289 685
e 289 881
e 290 910
e 290 984
e 290 1001
e 291 739
e 292 304
e 292 348
e 292 609
e 293 587
e 293 824
e 294 297
e 294 479
e 294 985
e 295 739
e 295 975
e 295 1058
e 296 298
e 296 585
e 297 524
e 297 707
e 297 744
e 297 753
e 297 803
e 297 949
e 297 1003
e 298 459
e 298 612
e 298 697
e 298 698
e 298 793
e 298 899
e 298 919
e 299 443
e 299 1001
e 300 309
e 300 339
e 300 437
e 301 621
e 301 904
e 302 607
e 303 1019
e 304 467
e 304 538
e 304 546
e 304 577
e 304 593
e 304 713
e 304 795
e 304 852
e 304 976
e 304 1055
e 305 517
e 305 847
e 305 868
e 306 345
e 306 351
e 306 450
e 306 487
e 306 502
e 306 503
e 306 547
e 306 1004
e 306 1066
e 307 511
e 307 623
e 308 352
e 309 314
e 309 436
e 309 683
e 309 693
e 309 866
e 309 948
e 309 1041
e 310 394
e 310 781
e 311 490
e 311 600
e 312 558
e 312 623
e 312 984
e 313 473
e 313 492
e 314 492
e 314 822
e 315 500
e 315 833
e 316 352
e 316 708
e 316 904
e 317 391
e 317 739
e 318 463
e 318 609
e 318 1053
e 319 587
e 319 685
e 319 934
e 320 932
e 320 1072
e 321 917
e 321 988
e 322 473
e 323 462
e 323 714
e 323 758
e 324 333
e 324 941
e 325 331
e 325 358
e 325 530
e 325 581
e 325 695
e 325 775
e 325 805
e 325 828
e 326 747
e 326 886
e 326 972
e 327 585
e 327 598
e 327 776
e 328 963
e 328 988
e 328 1038
e 329 421
e 329 520
e 329 557
e 329 589
e 329 634
e 329 696
e 329 722
e 329 730
e 329 806
e 329 894
e 329 1052
e 330 485
e 330 627
e 330 804
e 330 853
e 330 1051
e 330 1069
e 331 843
e 332 422
e 332 433
e 332 767
e 332 892
e 332 924
e 332 978
e 332 1076
e 333 448
e 333 453
e 333 532
e 333 666
e 333 753
e 334 359
e 334 789
e 334 975
e 335 719
e 336 570
e 336 587
e 336 598
e 337 505
e 338 348
e 338 405
e 339 467
e 339 540
e 339 748
e 339 803
e 339 933
e 340 508
e 340 984
e 341 644
e 341 705
e 342 462
e 343 423
e 343 434
e 343 497
e 343 526
e 343 532
e 343 652
e 343 699
e 343 839
e 343 943
e 343 1022
e 344 386
e 344 558
e 344 750
e 345 716
e 345 990
e 346 833
e 346 886
e 346 963
e 347 576
e 347 665
e 348 368
e 348 436
e 348 489
e 348 541
e 348 652
e 348 707
e 348 733
e 348 1011
e 348 1051
e 349 387
e 349 488
e 349 576
e 350 374
e 350 500
e 350 1058
e 351 749
e 352 506
e 352 543
e 352 675
e 352 814
e 352 831
e 352 890
e 352 912
e 353 604
e 353 818
e 354 356
e 354 628
e 354 868
e 355 373
e 355 414
e 355 510
e 355 514
e 355 573
e 355 709
e 355 731
e 355 778
e 355 846
e 355 954
e 356 550
e 356 592
e 356 667
e 356 826
e 356 841
e 356 865
e 356 1013
e 356 1071
e 357 746
e 357 754
e 357 1038
e 358 488
e 358 508
e 359 388
e 359 403
e 359 563
e 359 657
e 359 1031
e 360 844
e 360 972
e 361 505
e 361 758
e 363 430
e 363 714
e 363 1058
e 364 669
e 365 644
e 365 861
e 365 988
e 366 727
e 366 972
e 367 525
e 367 562
e 367 651
e 367 687
e 367 796
e 367 823
e 367 864
e 367 973
e 368 552
e 368 936
e 369 861
e 369 1016
e 370 407
e 370 448
e 370 778
e 370 812
e 370 832
e 370 891
e 370 912
e 370 1004
e 371 886
e 372 658
e 372 981
e 373 382
e 374 464
e 374 660
e 374 703
e 374 760
e 374 768
e 374 810
e 374 835
e 374 987
e 374 1045
e 374 1078
e 375 505
e 375 585
e 375 900
e 376 644
e 377 786
e 377 910
e 377 972
e 378 587
e 378 727
e 379 509
e 379 716
e 379 824
e 380 452
e 380 662
e 381 386
e 381 618
e 381 776
e 382 390
e 382 438
e 382 538
e 382 542
e 382 584
e 382 965
e 382 1067
e 383 576
e 383 732
e 383 1079
e 384 584
e 384 715
e 384 848
e 384 979
e 384 983
e 384 1076
e 385 405
e 386 491
e 386 499
e 386 591
e 386 673
e 386 718
e 386 740
e 386 864
e 386 903
e 386 929
e 387 553
e 387 580
e 387 584
e 387 631
e 387 640
e 387 657
e 387 902
e 387 923
e 387 966
e 388 1053
e 389 392
e 389 406
e 389 412
e 389 418
e 389 471
e 389 712
e 389 774
e 389 864
e 389 999
e 389 1033
e 390 480
e 391 407
e 391 475
e 391 527
e 391 530
e 391 591
e 391 667
e 391 775
e 391 915
e 391 952
e 391 953
e 392 533
e 392 994
e 393 531
e 393 633
e 393 688
e 393 706
e 393 950
e 393 970
e 393 986
e 393 993
e 393 1034
e 393 1048
e 394 455
e 394 461
e 394 605
e 394 712
e 394 887
e 394 956
e 394 964
e 394 991
e 395 533
e 395 1053
e 396 559
e 396 570
e 397 818
e 398 609
e 398 985
e 398 994
e 399 604
e 400 495
e 400 604
e 400 893
e 401 749
e 401 780
e 402 613
e 402 669
e 403 587
e 403 676
e 404 608
e 404 799
e 405 467
e 405 588
e 405 663
e 405 690
e 405 710
e 405 717
e 405 793
e 405 1062
e 406 676
e 407 942
e 408 917
e 409 975
e 409 1053
e 410 676
e 410 1058
e 411 917
e 412 776
e 413 520
e 413 564
e 413 641
e 413 649
e 413 656
e 413 889
e 414 719
e 415 465
e 415 994
e 416 462
e 416 838
e 417 1040
e 418 604
e 419 628
e 420 783
e 420 896
e 421 585
e 421 985
e 422 917
e 423 674
e 423 900
e 424 750
e 424 917
e 424 1020
e 425 490
e 425 559
e 426 942
e 426 1020
e 427 847
e 428 998
e 429 700
e 430 442
e 430 539
e 430 626
e 430 766
e 430 858
e 430 892
e 430 999
e 431 511
e 431 600
e 431 1064
e 432 716
e 432 799
e 433 877
e 434 985
e 434 1072
e 435 493
e 435 549
e 435 726
e 435 769
e 435 802
e 435 888
e 435 989
e 435 1036
e 437 478
e 437 519
e 437 733
e 437 744
e 437 832
e 437 849
e 437 1032
e 438 780
e 438 936
e 439 511
e 439 859
e 439 1038
e 440 481
e 440 521
e 440 574
e 440 656
e 440 668
e 440 704
e 440 777
e 440 872
e 440 937
e 440 1021
e 441 758
e 442 618
e 443 539
e 443 629
e 443 661
e 443 788
e 444 508
e 444 942
e 444 996
e 445 559
e 445 587
e 446 600
e 446 735
e 446 776
e 447 507
e 447 833
e 448 815
e 449 484
e 449 519
e 449 541
e 449 647
e 449 725
e 449 784
e 449 821
e 449 921
e 449 933
e 449 1029
e 450 465
e 450 507
e 451 868
e 451 934
e 452 493
e 452 522
e 452 523
e 452 599
e 452 641
e 452 757
e 452 1015
e 452 1024
e 453 781
e 454 739
e 454 843
e 454 1020
e 455 517
e 455 1053
e 456 697
e 456 702
e 456 837
e 456 858
e 456 901
e 456 1026
e 456 1060
e 456 1065
e 457 618
e 457 674
e 457 994
e 458 896
e 458 1064
e 458 1072
e 459 904
e 460 719
e 460 801
e 460 861
e 461 747
e 461 893
e 462 477
e 462 752
e 462 854
e 462 1012
e 463 678
e 463 710
e 463 835
e 463 914
e 463 940
e 464 570
e 464 628
e 465 497
e 465 510
e 465 647
e 465 675
e 465 681
e 465 690
e 465 704
e 466 917
e 466 1058
e 469 662
e 469 781
e 470 881
e 471 786
e 471 981
e 472 513
e 472 932
e 472 1068
e 473 504
e 473 523
e 473 565
e 473 790
e 473 872
e 473 967
e 473 1052
e 474 511
e 474 644
e 475 608
e 476 1040
e 476 1068
e 477 897
e 478 818
e 479 481
e 479 497
e 479 615
e 479 724
e 479 725
e 479 836
e 479 894
e 479 968
e 479 1012
e 479 1018
e 480 489
e 480 540
e 480 645
e 480 654
e 480 899
e 480 914
e 480 1060
e 482 754
e 482 801
e 483 490
e 483 585
e 484 498
e 484 674
e 485 735
e 485 749
e 486 749
e 487 822
e 487 898
e 488 572
e 488 651
e 488 655
e 488 738
e 488 795
e 488 930
e 488 1061
e 488 1070
e 489 904
e 490 565
e 490 718
e 490 856
e 490 1006
e 490 1033
e 491 637
e 492 670
e 492 907
e 492 977
e 492 1014
e 493 963
e 494 685
e 494 714
e 494 1020
e 495 519
e 495 528
e 495 594
e 495 660
e 495 753
e 495 771
e 495 964
e 495 1022
e 496 598
e 496 1001
e 496 1064
e 498 829
e 498 854
e 498 880
e 498 908
e 498 943
e 499 815
e 500 569
e 500 588
e 500 721
e 500 982
e 500 986
e 500 995
e 500 1023
e 500 1037
e 500 1060
e 501 818
e 501 857
e 501 900
e 502 843
e 503 719
e 504 511
e 504 932
e 505 516
e 505 734
e 505 763
e 505 787
e 505 807
e 505 816
e 505 829
e 505 836
e 506 844
e 507 527
e 507 578
e 507 684
e 507 703
e 507 841
e 507 876
e 507 928
e 508 573
e 508 642
e 508 743
e 508 920
e 508 1013
e 508 1027
e 509 578
e 509 596
e 509 678
e 509 692
e 509 761
e 509 938
e 509 1059
e 510 628
e 511 590
e 511 701
e 511 1036
e 512 526
e 512 574
e 512 638
e 512 730
e 512 831
e 512 924
e 512 971
e 512 1029
e 513 521
e 513 595
e 513 722
e 513 723
e 513 773
e 513 816
e 513 821
e 513 839
e 513 922
e 514 749
e 514 822
e 515 559
e 515 776
e 515 897
e 516 838
e 517 596
e 517 680
e 517 688
e 517 797
e 517 870
e 517 887
e 517 987
e 517 1003
e 518 558
e 518 662
e 518 1038
e 522 860
e 522 1038
e 524 533
e 524 900
e 525 665
e 525 1079
e 528 833
e 528 981
e 529 847
e 529 910
e 530 830
e 531 838
e 531 860
e 532 747
e 533 543
e 533 554
e 533 557
e 533 668
e 533 784
e 533 788
e 533 943
e 533 978
e 534 727
e 534 1053
e 535 758
e 535 847
e 535 963
e 536 559
e 536 850
e 537 552
e 537 905
e 538 735
e 539 881
e 540 700
e 541 850
e 542 801
e 542 822
e 543 658
e 545 905
e 545 1079
e 546 570
e 546 838
e 547 708
e 548 881
e 549 850
e 549 910
e 550 941
e 551 629
e 551 643
e 551 686
e 551 711
e 551 817
e 551 825
e 551 892
e 551 903
e 551 958
e 552 640
e 552 645
e 552 842
e 552 899
e 552 958
e 552 992
e 552 1000
e 553 934
e 554 705
e 554 963
e 555 700
e 555 881
e 555 905
e 556 838
e 556 847
e 556 859
e 557 893
e 558 812
e 558 834
e 558 888
e 558 967
e 558 1032
e 558 1073
e 559 683
e 559 796
e 559 808
e 559 851
e 559 901
e 560 747
e 560 789
e 560 981
e 561 637
e 561 830
e 561 942
e 562 600
e 564 932
e 564 988
e 566 604
e 566 735
e 566 781
e 567 818
e 567 981
e 568 719
e 568 1038
e 569 587
e 569 936
e 570 578
e 570 630
e 570 672
e 570 774
e 570 804
e 570 837
e 571 608
e 571 815
e 572 719
e 572 942
e 574 1053
e 576 661
e 576 765
e 576 791
e 576 800
e 576 809
e 576 890
e 579 619
e 579 910
e 579 1038
e 580 996
e 581 719
e 581 1079
e 582 600
e 582 815
e 583 732
e 583 934
e 583 1040
e 585 704
e 585 794
e 585 796
e 585 854
e 585 895
e 586 861
e 586 917
e 587 766
e 587 914
e 588 1053
e 589 674
e 589 1053
e 590 861
e 590 917
e 591 714
e 592 719
e 592 843
e 593 758
e 593 824
e 594 868
e 594 972
e 595 822
e 595 1064
e 596 604
e 597 781
e 597 981
e 598 603
e 598 693
e 598 823
e 598 862
e 598 955
e 598 1006
e 598 1065
e 599 859
e 599 984
e 600 632
e 600 696
e 600 777
e 601 893
e 601 934
e 601 975
e 602 618
e 602 981
e 603 750
e 604 660
e 604 870
e 604 878
e 604 935
e 604 962
e 605 618
e 605 786
e 606 857
e 607 659
e 607 755
e 607 787
e 607 793
e 607 817
e 607 1031
e 607 1035
e 607 1043
e 608 687
e 608 834
e 608 869
e 608 1033
e 608 1075
e 609 659
e 609 675
e 609 698
e 609 982
e 609 1042
e 609 1057
e 610 844
e 610 850
e 610 984
e 611 619
e 611 984
e 612 1040
e 613 632
e 613 656
e 613 763
e 613 765
e 613 980
e 613 1052
e 614 838
e 614 941
e 614 1019
e 615 1064
e 616 754
e 616 843
e 616 1019
e 617 669
e 617 776
e 617 996
e 618 672
e 618 687
e 618 759
e 618 831
e 619 671
e 619 699
e 619 707
e 619 769
e 619 862
e 619 933
e 619 1046
e 619 1076
e 620 904
e 620 936
e 620 1016
e 621 645
e 621 699
e 621 883
e 621 921
e 621 976
e 621 1042
e 622 685
e 623 636
e 623 726
e 623 811
e 623 845
e 623 855
e 623 997
e 623 1009
e 623 1063
e 624 628
e 624 886
e 624 1019
e 625 910
e 626 705
e 627 824
e 628 874
e 628 952
e 628 1066
e 629 676
e 631 1079
e 633 963
e 634 1072
e 635 758
e 635 860
e 635 972
e 636 735
e 636 781
e 637 737
e 637 841
e 637 867
e 637 869
e 637 873
e 637 1044
e 638 658
e 638 994
e 639 861
e 639 877
e 640 881
e 641 1064
e 642 801
e 643 685
e 643 705
e 644 1054
e 644 1056
e 647 1072
e 648 754
e 648 942
e 648 1079
e 649 857
e 650 815
e 651 669
e 652 1001
e 653 905
e 653 1040
e 654 727
e 655 905
e 657 1040
e 658 718
e 658 792
e 658 962
e 658 991
e 659 1016
e 661 917
e 662 974
e 662 979
e 663 727
e 663 893
e 664 705
e 664 917
e 665 946
e 665 953
e 665 974
e 665 997
e 665 1061
e 667 716
e 668 789
e 669 805
e 669 845
e 669 856
e 669 915
e 669 1044
e 671 705
e 672 676
e 674 916
e 676 694
e 676 702
e 676 792
e 676 951
e 677 877
e 679 877
e 680 972
e 682 838
e 683 750
e 684 799
e 684 1019
e 685 759
e 685 774
e 686 822
e 686 1040
e 688 886
e 689 844
e 691 910
e 691 994
e 692 868
e 692 963
e 694 714
e 695 975
e 695 1020
e 696 857
e 700 912
e 700 919
e 700 1011
e 700 1028
e 701 963
e 701 984
e 703 824
e 705 791
e 705 916
e 706 786
e 708 731
e 708 756
e 708 775
e 708 842
e 708 873
e 708 884
e 708 931
e 709 716
e 709 985
e 710 789
e 711 910
e 713 996
e 714 779
e 714 807
e 714 869
e 714 1050
e 715 754
e 715 984
e 716 737
e 716 760
e 716 1071
e 717 1016
e 717 1040
e 719 879
e 719 969
e 720 900
e 721 847
e 723 896
e 723 932
e 724 1068
e 725 990
e 726 815
e 727 871
e 727 1017
e 727 1048
e 727 1057
e 727 1078
e 728 881
e 728 896
e 728 1040
e 729 917
e 730 789
e 731 975
e 732 736
e 732 848
e 732 906
e 732 930
e 732 958
e 732 1031
e 732 1039
e 732 1067
e 733 998
e 734 1072
e 735 956
e 735 1007
e 736 746
e 736 749
e 737 1019
e 739 743
e 739 931
e 739 953
e 739 1044
e 739 1070
e 740 799
e 741 801
e 741 975
e 742 893
e 743 1079
e 744 747
e 745 843
e 745 934
e 745 1053
e 746 757
e 746 923
e 746 969
e 746 1063
e 747 878
e 747 935
e 747 993
e 747 1059
e 749 852
e 749 966
e 749 983
e 750 798
e 751 776
e 751 830
e 751 1079
e 752 857
e 752 1040
e 754 954
e 754 1070
e 755 822
e 755 881
e 758 804
e 758 826
e 758 947
e 758 970
e 759 824
e 761 859
e 762 780
e 763 1040
e 764 898
e 765 830
e 767 850
e 768 859
e 768 886
e 769 844
e 770 838
e 770 963
e 770 972
e 771 981
e 771 1053
e 772 783
e 772 1079
e 776 840
e 776 889
e 776 1061
e 778 843
e 779 799
e 780 819
e 780 849
e 780 865
e 781 863
e 781 959
e 782 877
e 782 1020
e 783 795
e 783 909
e 783 945
e 783 948
e 785 942
e 785 975
e 786 866
e 786 880
e 786 894
e 786 922
e 786 937
e 786 962
e 788 860
e 789 870
e 789 964
e 789 1005
e 789 1037
e 789 1047
e 789 1057
e 790 988
e 790 1064
e 791 877
e 792 824
e 794 990
e 797 893
e 797 981
e 798 877
e 798 1058
e 799 805
e 799 931
e 799 946
e 799 1008
e 800 905
e 800 996
e 801 874
e 801 884
e 801 1077
e 802 1001
e 803 1001
e 806 990
e 808 998
e 810 963
e 811 818
e 813 830
e 814 990
e 815 1049
e 816 1064
e 818 956
e 820 998
e 821 985
e 822 827
e 822 909
e 824 901
e 824 999
e 825 904
e 825 905
e 828 1058
e 829 897
e 830 875
e 830 918
e 830 973
e 833 878
e 833 887
e 833 1017
e 833 1030
e 835 1020
e 836 932
e 838 865
e 838 1050
e 838 1069
e 839 990
e 842 994
e 843 884
e 843 1005
e 843 1027
e 843 1080
e 844 903
e 844 950
e 844 1074
e 847 871
e 848 898
e 850 925
e 853 1079
e 855 1038
e 856 1079
e 857 872
e 857 918
e 858 934
e 859 916
e 859 970
e 859 978
e 859 989
e 860 938
e 860 1030
e 860 1036
e 860 1045
e 861 954
e 861 1015
e 868 876
e 868 961
e 868 993
e 868 1045
e 873 942
e 874 990
e 876 1019
e 877 1015
e 879 975
e 879 1019
e 881 1039
e 882 1068
e 883 998
e 885 898
e 885 936
e 885 941
e 886 928
e 886 938
e 886 1071
e 890 910
e 891 904
e 891 994
e 893 971
e 893 982
e 895 1016
e 896 977
e 896 1018
e 896 1041
e 896 1043
e 897 911
e 897 926
e 897 1006
e 897 1021
e 898 923
e 898 944
e 898 1007
e 898 1055
e 898 1077
e 900 959
e 900 1029
e 902 904
e 904 1039
e 905 944
e 905 983
e 905 1035
e 906 996
e 907 941
e 908 998
e 909 998
e 910 1034
e 910 1075
e 913 1072
e 915 942
e 917 1024
e 919 936
e 920 1019
e 921 1001
e 924 963
e 925 1064
e 926 1016
e 927 988
e 932 1046
e 934 1035
e 934 1047
e 935 1053
e 936 992
e 937 1072
e 939 1001
e 940 972
e 941 1002
e 942 946
e 942 1008
e 942 1080
e 947 1068
e 949 990
e 949 1072
e 951 1020
e 952 1019
e 955 998
e 957 1064
e 957 1068
e 957 1072
e 960 972
e 969 984
e 972 995
e 973 996
e 975 1004
e 975 1013
e 977 998
e 979 988
e 980 1068
e 981 987
e 981 1059
e 984 1010
e 985 1066
e 988 989
e 988 1063
e 990 1021
e 990 1062
e 994 1028
e 994 1062
e 1000 1016
e 1001 1074
e 1012 1064
e 1017 1020
e 1038 1049
e 1038 1074
e 1050 1068
e 1056 1058
e 1058 1080
